proyfinal/src/viki/013/experimentInOfficeAgust.take6.output/9936d362-9aec-45a5-a98d-94cdbadaa487.als.dat
{'cnf.clauses': '118081',
 'cnf.totvars': '69608',
 'conflict literals': '50',
 'conflicts': '23',
 'decisions': '6775',
 'memused.mb': '13.94',
 'outcome': 'UNSAT',
 'propagations': '31671',
 'restarts': '1',
 'solver.msecs': 29,
 'task.msecs': 177}
