proyfinal/src/viki/013/experimentInOfficeAgust.take6.output/9936d362-9aec-45a5-a98d-94cdbadaa487.als.out
Reading from standard input... Use '--help' for help.
============================[ Problem Statistics ]=============================
|                                                                             |
|  Number of variables:         69608                                         |
|  Number of clauses:          118081                                         |
|  Parse time:                   0.02 s                                       |
|                                                                             |
============================[ Search Statistics ]==============================
| Conflicts |          ORIGINAL         |          LEARNT          | Progress |
|           |    Vars  Clauses Literals |    Limit  Clauses Lit/Cl |          |
===============================================================================
===============================================================================
restarts              : 1
conflicts             : 23             (784 /sec)
decisions             : 6775           (0.00 % random) (230835 /sec)
propagations          : 31671          (1079080 /sec)
conflict literals     : 50             (0.00 % deleted)
Memory used           : 13.94 MB
CPU time              : 0.02935 s

UNSATISFIABLE
